maximize
OBJ:100x0 + 100x1 + 100x2 + 100x3 + 100x4 + 100x5 + 100x6 + 100x7 + 100x8 + 100x9 + 100x10 + 100x11 + 100x12 + 100x13 + 100x14 + 100x15 + 100x16 + 100x17 + 100x18 + 100x19 + 100x20 + 100x21 + 100x22 + 100x23 + 100x24 + 100x25 + 100x26 + 100x27 + 100x28 + 100x29 + 100x30 + 100x31 + 100x32 + 100x33 + 100x34 + 100x35 + 100x36 + 100x37 + 100x38 + 100x39 + 100x40 + 100x41 + 100x42 + 100x43 + 100x44 + 100x45 + 100x46 + 100x47 + 100x48 + 100x49 + 100x50 + 100x51 + 100x52 + 100x53 + 100x54 + 100x55 + 100x56 + 100x57 + 100x58 + 100x59 + 100x60 + 100x61 + 100x62 + 100x63 + 100x64 + 100x65 + 100x66 - y15_21 - y55_57 - y59_64 - y26_39 - y17_58 - y5_65 - y29_32 - y0_5 - y8_18 - y6_48 - y48_63 - y6_57 - y29_59 - y41_42 - y10_36 - y2_32 - y33_47 - y44_47 - y25_52 - y51_64 - y25_61 - y14_24 - y43_60 - y22_37 - y14_33 - y14_51 - y7_12 - y47_48 - y55_61 - y7_21 - y18_21 - y36_57 - y28_53 - y18_30 - y9_58 - y40_45 - y48_58 - y10_22 - y10_31 - y2_27 - y10_40 - y33_42 - y3_10 - y14_19 - y32_55 - y22_32 - y43_64 - y14_37 - y16_65 - y5_46 - y5_64 - y28_66 - y21_27 - y21_36 - y29_49 - y6_56 - y40_58 - y54_60 - y33_37 - y51_54 - y2_49 - y3_14 - y32_50 - y3_23 - y14_23 - y1_53 - y35_55 - y16_51 - y1_62 - y16_60 - y36_38 - y55_60 - y36_56 - y9_48 - y17_61 - y6_24 - y6_42 - y42_63 - y39_57 - y54_55 - y39_66 - y25_28 - y10_39 - y2_35 - y32_36 - y3_9 - y3_18 - y14_18 - y32_54 - y32_63 - y5_36 - y9_34 - y6_19 - y29_30 - y27_60 - y50_62 - y61_62 - y21_35 - y6_46 - y39_43 - y39_52 - y20_48 - y31_48 - y10_25 - y12_44 - y12_53 - y2_30 - y4_49 - y12_62 - y3_4 - y4_58 - y1_34 - y13_45 - y32_58 - y43_58 - y1_52 - y13_54 - y35_54 - y1_61 - y9_11 - y5_22 - y9_20 - y28_33 - y6_23 - y42_53 - y21_30 - y27_64 - y61_66 - y19_60 - y30_60 - y11_56 - y39_56 - y39_65 - y12_48 - y20_61 - y24_31 - y16_27 - y13_40 - y35_49 - y1_56 - y5_17 - y46_55 - y46_64 - y57_64 - y28_37 - y50_52 - y8_46 - y30_46 - y27_59 - y42_48 - y0_51 - y30_64 - y42_66 - y20_38 - y39_51 - y12_43 - y20_56 - y1_15 - y13_17 - y23_61 - y34_58 - y1_33 - y4_66 - y16_31 - y24_44 - y37_63 - y16_40 - y1_51 - y9_10 - y38_46 - y9_28 - y5_39 - y18_58 - y27_36 - y27_45 - y11_37 - y27_63 - y0_46 - y19_59 - y20_24 - y12_20 - y11_64 - y39_46 - y20_42 - y31_42 - y31_51 - y12_47 - y1_10 - y13_21 - y4_52 - y16_17 - y64_66 - y4_61 - y16_26 - y34_62 - y37_58 - y14_65 - y38_41 - y46_54 - y15_48 - y26_48 - y49_50 - y15_66 - y19_27 - y27_49 - y50_51 - y8_45 - y27_58 - y30_54 - y42_56 - y0_50 - y8_63 - y39_41 - y20_37 - y31_37 - y12_33 - y33_65 - y34_48 - y37_44 - y22_55 - y34_57 - y1_32 - y5_11 - y26_43 - y46_58 - y57_58 - y26_52 - y8_13 - y7_57 - y19_22 - y7_66 - y8_31 - y27_44 - y0_27 - y11_27 - y19_40 - y0_36 - y11_36 - y8_49 - y19_49 - y20_23 - y4_6 - y12_19 - y52_55 - y31_32 - y4_15 - y12_28 - y41_64 - y52_64 - y23_37 - y4_33 - y25_65 - y1_18 - y14_46 - y22_59 - y37_66 - y7_25 - y15_38 - y26_38 - y0_4 - y7_52 - y0_13 - y8_35 - y11_31 - y8_44 - y12_14 - y33_46 - y44_55 - y25_51 - y10_62 - y44_64 - y1_4 - y2_58 - y3_32 - y34_47 - y14_50 - y14_59 - y7_20 - y26_33 - y7_29 - y26_42 - y7_38 - y18_47 - y8_12 - y18_56 - y19_21 - y0_17 - y40_53 - y8_30 - y6_60 - y40_62 - y21_58 - y4_14 - y44_50 - y41_63 - y52_63 - y10_57 - y33_59 - y25_55 - y34_42 - y14_36 - y37_38 - y45_51 - y14_45 - y37_47 - y14_54 - y15_28 - y7_24 - y29_39 - y8_16 - y48_52 - y40_48 - y6_55 - y29_57 - y21_53 - y11_30 - y10_34 - y33_45 - y52_58 - y2_39 - y33_54 - y25_50 - y2_57 - y22_35 - y34_37 - y22_44 - y14_40 - y3_49 - y7_19 - y15_32 - y36_64 - y7_37 - y8_11 - y0_7 - y21_39 - y0_16 - y6_50 - y29_52 - y40_52 - y29_61 - y21_66 - y41_44 - y25_27 - y44_49 - y2_43 - y25_45 - y3_17 - y43_62 - y13_58 - y3_35 - y14_35 - y36_41 - y15_18 - y7_14 - y5_53 - y9_60 - y6_36 - y29_47 - y29_56 - y10_15 - y6_63 - y54_58 - y2_47 - y51_61 - y14_21 - y24_53 - y3_30 - y32_66 - y1_60 - y24_62 - y7_9 - y17_50 - y47_63 - y17_59 - y58_60 - y21_29 - y29_42 - y21_47 - y2_15 - y20_60 - y25_26 - y54_62 - y2_42 - y32_43 - y35_39 - y3_16 - y43_52 - y3_25 - y1_55 - y24_57 - y17_18 - y13_66 - y24_66 - y35_66 - y17_27 - y36_40 - y28_36 - y47_49 - y5_43 - y28_45 - y36_58 - y9_41 - y5_61 - y9_59 - y21_24 - y2_10 - y20_46 - y10_23 - y12_51 - y20_64 - y54_66 - y12_60 - y13_25 - y2_37 - y4_56 - y23_60 - y32_38 - y3_11 - y43_47 - y51_60 - y1_41 - y13_43 - y16_39 - y1_50 - y32_65 - y24_61 - y28_31 - y17_49 - y58_59 - y50_55 - y21_28 - y27_62 - y19_58 - y11_63 - y20_41 - y39_63 - y2_23 - y12_55 - y4_51 - y12_64 - y23_64 - y24_29 - y16_25 - y1_36 - y35_38 - y43_51 - y16_34 - y1_45 - y1_54 - y9_13 - y16_61 - y49_58 - y28_35 - y27_48 - y42_46 - y27_57 - y27_66 - y42_64 - y20_27 - y11_58 - y2_9 - y23_41 - y2_18 - y31_54 - y54_56 - y23_50 - y31_63 - y53_60 - y16_20 - y32_46 - y13_42 - y38_44 - y17_21 - y5_28 - y28_30 - y46_66 - y9_26 - y15_60 - y26_60 - y57_66 - y6_11 - y18_65 - y8_39 - y30_39 - y27_52 - y27_61 - y0_44 - y11_44 - y0_53 - y8_66 - y0_62 - y31_40 - y4_23 - y23_36 - y23_45 - y1_8 - y4_50 - y24_28 - y53_64 - y1_44 - y16_42 - y38_39 - y46_52 - y46_61 - y9_21 - y26_55 - y38_57 - y15_64 - y7_60 - y18_60 - y8_34 - y19_34 - y27_47 - y30_34 - y19_43 - y42_45 - y0_39 - y30_52 - y12_13 - y12_22 - y31_35 - y11_66 - y12_31 - y12_40 - y23_49 - y1_21 - y4_54 - y1_30 - y16_28 - y56_64 - y37_60 - y15_41 - y26_41 - y49_52 - y57_65 - y7_46 - y26_59 - y18_55 - y8_20 - y19_20 - y8_29 - y19_29 - y19_38 - y0_34 - y42_49 - y8_56 - y11_52 - y4_13 - y23_26 - y31_39 - y33_58 - y44_58 - y10_65 - y4_40 - y45_50 - y22_57 - y3_53 - y26_27 - y5_13 - y46_51 - y15_45 - y38_47 - y18_50 - y7_59 - y48_60 - y27_37 - y0_20 - y19_33 - y40_65 - y30_42 - y0_38 - y11_38 - y30_51 - y0_47 - y12_21 - y44_53 - y4_26 - y34_36 - y2_65 - y22_43 - y1_20 - y22_52 - y45_54 - y3_48 - y56_63 - y3_57 - y7_18 - y7_27 - y18_27 - y26_49 - y8_10 - y15_58 - y18_54 - y0_15 - y18_63 - y8_28 - y11_24 - y19_37 - y30_37 - y21_65 - y0_42 - y41_43 - y10_46 - y33_48 - y44_48 - y25_44 - y4_21 - y44_57 - y33_66 - y22_29 - y1_6 - y22_38 - y22_47 - y37_45 - y22_56 - y14_61 - y59_60 - y7_31 - y18_31 - y17_63 - y18_40 - y8_14 - y29_46 - y40_46 - y6_53 - y40_55 - y30_32 - y6_62 - y25_30 - y33_43 - y25_39 - y4_16 - y44_52 - y52_65 - y44_61 - y2_64 - y7_8
 Subject to
C1: x0+x1 <=1 
C2: x0+x2 <=1 
C3: x0+x4-y0_4 <=1 
C4: x0+x5-y0_5 <=1 
C5: x0+x7-y0_7 <=1 
C6: x0+x8 <=1 
C7: x0+x10 <=1 
C8: x0+x13-y0_13 <=1 
C9: x0+x15-y0_15 <=1 
C10: x0+x16-y0_16 <=1 
C11: x0+x17-y0_17 <=1 
C12: x0+x18 <=1 
C13: x0+x19 <=1 
C14: x0+x20-y0_20 <=1 
C15: x0+x24 <=1 
C16: x0+x27-y0_27 <=1 
C17: x0+x29 <=1 
C18: x0+x34-y0_34 <=1 
C19: x0+x36-y0_36 <=1 
C20: x0+x38-y0_38 <=1 
C21: x0+x39-y0_39 <=1 
C22: x0+x41 <=1 
C23: x0+x42-y0_42 <=1 
C24: x0+x43 <=1 
C25: x0+x44-y0_44 <=1 
C26: x0+x45 <=1 
C27: x0+x46-y0_46 <=1 
C28: x0+x47-y0_47 <=1 
C29: x0+x49 <=1 
C30: x0+x50-y0_50 <=1 
C31: x0+x51-y0_51 <=1 
C32: x0+x52 <=1 
C33: x0+x53-y0_53 <=1 
C34: x0+x54 <=1 
C35: x0+x55 <=1 
C36: x0+x56 <=1 
C37: x0+x57 <=1 
C38: x0+x58 <=1 
C39: x0+x59 <=1 
C40: x0+x61 <=1 
C41: x0+x62-y0_62 <=1 
C42: x0+x63 <=1 
C43: x0+x64 <=1 
C44: x0+x66 <=1 
C45: x1+x2 <=1 
C46: x1+x4-y1_4 <=1 
C47: x1+x6-y1_6 <=1 
C48: x1+x8-y1_8 <=1 
C49: x1+x9 <=1 
C50: x1+x10-y1_10 <=1 
C51: x1+x13 <=1 
C52: x1+x14 <=1 
C53: x1+x15-y1_15 <=1 
C54: x1+x18-y1_18 <=1 
C55: x1+x19 <=1 
C56: x1+x20-y1_20 <=1 
C57: x1+x21-y1_21 <=1 
C58: x1+x25 <=1 
C59: x1+x28 <=1 
C60: x1+x30-y1_30 <=1 
C61: x1+x32-y1_32 <=1 
C62: x1+x33-y1_33 <=1 
C63: x1+x34-y1_34 <=1 
C64: x1+x35 <=1 
C65: x1+x36-y1_36 <=1 
C66: x1+x37 <=1 
C67: x1+x38 <=1 
C68: x1+x40 <=1 
C69: x1+x41-y1_41 <=1 
C70: x1+x44-y1_44 <=1 
C71: x1+x45-y1_45 <=1 
C72: x1+x47 <=1 
C73: x1+x50-y1_50 <=1 
C74: x1+x51-y1_51 <=1 
C75: x1+x52-y1_52 <=1 
C76: x1+x53-y1_53 <=1 
C77: x1+x54-y1_54 <=1 
C78: x1+x55-y1_55 <=1 
C79: x1+x56-y1_56 <=1 
C80: x1+x57 <=1 
C81: x1+x59 <=1 
C82: x1+x60-y1_60 <=1 
C83: x1+x61-y1_61 <=1 
C84: x1+x62-y1_62 <=1 
C85: x1+x66 <=1 
C86: x2+x6 <=1 
C87: x2+x9-y2_9 <=1 
C88: x2+x10-y2_10 <=1 
C89: x2+x11 <=1 
C90: x2+x13 <=1 
C91: x2+x14 <=1 
C92: x2+x15-y2_15 <=1 
C93: x2+x16 <=1 
C94: x2+x18-y2_18 <=1 
C95: x2+x21 <=1 
C96: x2+x22 <=1 
C97: x2+x23-y2_23 <=1 
C98: x2+x27-y2_27 <=1 
C99: x2+x29 <=1 
C100: x2+x30-y2_30 <=1 
C101: x2+x32-y2_32 <=1 
C102: x2+x34 <=1 
C103: x2+x35-y2_35 <=1 
C104: x2+x37-y2_37 <=1 
C105: x2+x38 <=1 
C106: x2+x39-y2_39 <=1 
C107: x2+x40 <=1 
C108: x2+x42-y2_42 <=1 
C109: x2+x43-y2_43 <=1 
C110: x2+x44 <=1 
C111: x2+x45 <=1 
C112: x2+x47-y2_47 <=1 
C113: x2+x49-y2_49 <=1 
C114: x2+x52 <=1 
C115: x2+x53 <=1 
C116: x2+x54 <=1 
C117: x2+x55 <=1 
C118: x2+x56 <=1 
C119: x2+x57-y2_57 <=1 
C120: x2+x58-y2_58 <=1 
C121: x2+x59 <=1 
C122: x2+x60 <=1 
C123: x2+x62 <=1 
C124: x2+x64-y2_64 <=1 
C125: x2+x65-y2_65 <=1 
C126: x3+x4-y3_4 <=1 
C127: x3+x5 <=1 
C128: x3+x8 <=1 
C129: x3+x9-y3_9 <=1 
C130: x3+x10-y3_10 <=1 
C131: x3+x11-y3_11 <=1 
C132: x3+x12 <=1 
C133: x3+x14-y3_14 <=1 
C134: x3+x16-y3_16 <=1 
C135: x3+x17-y3_17 <=1 
C136: x3+x18-y3_18 <=1 
C137: x3+x19 <=1 
C138: x3+x21 <=1 
C139: x3+x23-y3_23 <=1 
C140: x3+x25-y3_25 <=1 
C141: x3+x26 <=1 
C142: x3+x27 <=1 
C143: x3+x29 <=1 
C144: x3+x30-y3_30 <=1 
C145: x3+x31 <=1 
C146: x3+x32-y3_32 <=1 
C147: x3+x34 <=1 
C148: x3+x35-y3_35 <=1 
C149: x3+x37 <=1 
C150: x3+x38 <=1 
C151: x3+x39 <=1 
C152: x3+x42 <=1 
C153: x3+x45 <=1 
C154: x3+x46 <=1 
C155: x3+x48-y3_48 <=1 
C156: x3+x49-y3_49 <=1 
C157: x3+x51 <=1 
C158: x3+x53-y3_53 <=1 
C159: x3+x54 <=1 
C160: x3+x55 <=1 
C161: x3+x56 <=1 
C162: x3+x57-y3_57 <=1 
C163: x3+x58 <=1 
C164: x3+x59 <=1 
C165: x3+x63 <=1 
C166: x3+x64 <=1 
C167: x3+x65 <=1 
C168: x4+x5 <=1 
C169: x4+x6-y4_6 <=1 
C170: x4+x9 <=1 
C171: x4+x11 <=1 
C172: x4+x13-y4_13 <=1 
C173: x4+x14-y4_14 <=1 
C174: x4+x15-y4_15 <=1 
C175: x4+x16-y4_16 <=1 
C176: x4+x17 <=1 
C177: x4+x19 <=1 
C178: x4+x20 <=1 
C179: x4+x21-y4_21 <=1 
C180: x4+x23-y4_23 <=1 
C181: x4+x26-y4_26 <=1 
C182: x4+x27 <=1 
C183: x4+x29 <=1 
C184: x4+x33-y4_33 <=1 
C185: x4+x35 <=1 
C186: x4+x37 <=1 
C187: x4+x38 <=1 
C188: x4+x40-y4_40 <=1 
C189: x4+x48 <=1 
C190: x4+x49-y4_49 <=1 
C191: x4+x50-y4_50 <=1 
C192: x4+x51-y4_51 <=1 
C193: x4+x52-y4_52 <=1 
C194: x4+x54-y4_54 <=1 
C195: x4+x56-y4_56 <=1 
C196: x4+x58-y4_58 <=1 
C197: x4+x60 <=1 
C198: x4+x61-y4_61 <=1 
C199: x4+x63 <=1 
C200: x4+x66-y4_66 <=1 
C201: x5+x6 <=1 
C202: x5+x10 <=1 
C203: x5+x11-y5_11 <=1 
C204: x5+x12 <=1 
C205: x5+x13-y5_13 <=1 
C206: x5+x17-y5_17 <=1 
C207: x5+x19 <=1 
C208: x5+x22-y5_22 <=1 
C209: x5+x26 <=1 
C210: x5+x28-y5_28 <=1 
C211: x5+x30 <=1 
C212: x5+x31 <=1 
C213: x5+x32 <=1 
C214: x5+x36-y5_36 <=1 
C215: x5+x37 <=1 
C216: x5+x39-y5_39 <=1 
C217: x5+x42 <=1 
C218: x5+x43-y5_43 <=1 
C219: x5+x45 <=1 
C220: x5+x46-y5_46 <=1 
C221: x5+x52 <=1 
C222: x5+x53-y5_53 <=1 
C223: x5+x55 <=1 
C224: x5+x58 <=1 
C225: x5+x59 <=1 
C226: x5+x60 <=1 
C227: x5+x61-y5_61 <=1 
C228: x5+x64-y5_64 <=1 
C229: x5+x65-y5_65 <=1 
C230: x6+x10 <=1 
C231: x6+x11-y6_11 <=1 
C232: x6+x12 <=1 
C233: x6+x15 <=1 
C234: x6+x16 <=1 
C235: x6+x17 <=1 
C236: x6+x19-y6_19 <=1 
C237: x6+x21 <=1 
C238: x6+x22 <=1 
C239: x6+x23-y6_23 <=1 
C240: x6+x24-y6_24 <=1 
C241: x6+x27 <=1 
C242: x6+x31 <=1 
C243: x6+x33 <=1 
C244: x6+x35 <=1 
C245: x6+x36-y6_36 <=1 
C246: x6+x37 <=1 
C247: x6+x38 <=1 
C248: x6+x39 <=1 
C249: x6+x42-y6_42 <=1 
C250: x6+x44 <=1 
C251: x6+x45 <=1 
C252: x6+x46-y6_46 <=1 
C253: x6+x48-y6_48 <=1 
C254: x6+x50-y6_50 <=1 
C255: x6+x53-y6_53 <=1 
C256: x6+x54 <=1 
C257: x6+x55-y6_55 <=1 
C258: x6+x56-y6_56 <=1 
C259: x6+x57-y6_57 <=1 
C260: x6+x58 <=1 
C261: x6+x60-y6_60 <=1 
C262: x6+x62-y6_62 <=1 
C263: x6+x63-y6_63 <=1 
C264: x6+x66 <=1 
C265: x7+x8-y7_8 <=1 
C266: x7+x9-y7_9 <=1 
C267: x7+x10 <=1 
C268: x7+x11 <=1 
C269: x7+x12-y7_12 <=1 
C270: x7+x14-y7_14 <=1 
C271: x7+x17 <=1 
C272: x7+x18-y7_18 <=1 
C273: x7+x19-y7_19 <=1 
C274: x7+x20-y7_20 <=1 
C275: x7+x21-y7_21 <=1 
C276: x7+x22 <=1 
C277: x7+x23 <=1 
C278: x7+x24-y7_24 <=1 
C279: x7+x25-y7_25 <=1 
C280: x7+x26 <=1 
C281: x7+x27-y7_27 <=1 
C282: x7+x29-y7_29 <=1 
C283: x7+x31-y7_31 <=1 
C284: x7+x32 <=1 
C285: x7+x33 <=1 
C286: x7+x35 <=1 
C287: x7+x37-y7_37 <=1 
C288: x7+x38-y7_38 <=1 
C289: x7+x44 <=1 
C290: x7+x45 <=1 
C291: x7+x46-y7_46 <=1 
C292: x7+x47 <=1 
C293: x7+x48 <=1 
C294: x7+x50 <=1 
C295: x7+x52-y7_52 <=1 
C296: x7+x54 <=1 
C297: x7+x57-y7_57 <=1 
C298: x7+x58 <=1 
C299: x7+x59-y7_59 <=1 
C300: x7+x60-y7_60 <=1 
C301: x7+x64 <=1 
C302: x7+x65 <=1 
C303: x7+x66-y7_66 <=1 
C304: x8+x10-y8_10 <=1 
C305: x8+x11-y8_11 <=1 
C306: x8+x12-y8_12 <=1 
C307: x8+x13-y8_13 <=1 
C308: x8+x14-y8_14 <=1 
C309: x8+x15 <=1 
C310: x8+x16-y8_16 <=1 
C311: x8+x17 <=1 
C312: x8+x18-y8_18 <=1 
C313: x8+x20-y8_20 <=1 
C314: x8+x22 <=1 
C315: x8+x25 <=1 
C316: x8+x27 <=1 
C317: x8+x28-y8_28 <=1 
C318: x8+x29-y8_29 <=1 
C319: x8+x30-y8_30 <=1 
C320: x8+x31-y8_31 <=1 
C321: x8+x33 <=1 
C322: x8+x34-y8_34 <=1 
C323: x8+x35-y8_35 <=1 
C324: x8+x37 <=1 
C325: x8+x38 <=1 
C326: x8+x39-y8_39 <=1 
C327: x8+x40 <=1 
C328: x8+x43 <=1 
C329: x8+x44-y8_44 <=1 
C330: x8+x45-y8_45 <=1 
C331: x8+x46-y8_46 <=1 
C332: x8+x49-y8_49 <=1 
C333: x8+x50 <=1 
C334: x8+x51 <=1 
C335: x8+x52 <=1 
C336: x8+x53 <=1 
C337: x8+x55 <=1 
C338: x8+x56-y8_56 <=1 
C339: x8+x57 <=1 
C340: x8+x58 <=1 
C341: x8+x60 <=1 
C342: x8+x62 <=1 
C343: x8+x63-y8_63 <=1 
C344: x8+x64 <=1 
C345: x8+x65 <=1 
C346: x8+x66-y8_66 <=1 
C347: x9+x10-y9_10 <=1 
C348: x9+x11-y9_11 <=1 
C349: x9+x13-y9_13 <=1 
C350: x9+x14 <=1 
C351: x9+x20-y9_20 <=1 
C352: x9+x21-y9_21 <=1 
C353: x9+x23 <=1 
C354: x9+x26-y9_26 <=1 
C355: x9+x28-y9_28 <=1 
C356: x9+x34-y9_34 <=1 
C357: x9+x35 <=1 
C358: x9+x36 <=1 
C359: x9+x37 <=1 
C360: x9+x41-y9_41 <=1 
C361: x9+x44 <=1 
C362: x9+x48-y9_48 <=1 
C363: x9+x50 <=1 
C364: x9+x52 <=1 
C365: x9+x56 <=1 
C366: x9+x58-y9_58 <=1 
C367: x9+x59-y9_59 <=1 
C368: x9+x60-y9_60 <=1 
C369: x9+x61 <=1 
C370: x9+x64 <=1 
C371: x10+x12 <=1 
C372: x10+x13 <=1 
C373: x10+x15-y10_15 <=1 
C374: x10+x16 <=1 
C375: x10+x18 <=1 
C376: x10+x19 <=1 
C377: x10+x21 <=1 
C378: x10+x22-y10_22 <=1 
C379: x10+x23-y10_23 <=1 
C380: x10+x25-y10_25 <=1 
C381: x10+x27 <=1 
C382: x10+x30 <=1 
C383: x10+x31-y10_31 <=1 
C384: x10+x34-y10_34 <=1 
C385: x10+x36-y10_36 <=1 
C386: x10+x39-y10_39 <=1 
C387: x10+x40-y10_40 <=1 
C388: x10+x41 <=1 
C389: x10+x42 <=1 
C390: x10+x45 <=1 
C391: x10+x46-y10_46 <=1 
C392: x10+x47 <=1 
C393: x10+x48 <=1 
C394: x10+x49 <=1 
C395: x10+x52 <=1 
C396: x10+x53 <=1 
C397: x10+x55 <=1 
C398: x10+x57-y10_57 <=1 
C399: x10+x62-y10_62 <=1 
C400: x10+x63 <=1 
C401: x10+x64 <=1 
C402: x10+x65-y10_65 <=1 
C403: x11+x13 <=1 
C404: x11+x24-y11_24 <=1 
C405: x11+x25 <=1 
C406: x11+x27-y11_27 <=1 
C407: x11+x30-y11_30 <=1 
C408: x11+x31-y11_31 <=1 
C409: x11+x32 <=1 
C410: x11+x33 <=1 
C411: x11+x35 <=1 
C412: x11+x36-y11_36 <=1 
C413: x11+x37-y11_37 <=1 
C414: x11+x38-y11_38 <=1 
C415: x11+x39 <=1 
C416: x11+x44-y11_44 <=1 
C417: x11+x47 <=1 
C418: x11+x51 <=1 
C419: x11+x52-y11_52 <=1 
C420: x11+x55 <=1 
C421: x11+x56-y11_56 <=1 
C422: x11+x58-y11_58 <=1 
C423: x11+x59 <=1 
C424: x11+x61 <=1 
C425: x11+x62 <=1 
C426: x11+x63-y11_63 <=1 
C427: x11+x64-y11_64 <=1 
C428: x11+x65 <=1 
C429: x11+x66-y11_66 <=1 
C430: x12+x13-y12_13 <=1 
C431: x12+x14-y12_14 <=1 
C432: x12+x16 <=1 
C433: x12+x17 <=1 
C434: x12+x18 <=1 
C435: x12+x19-y12_19 <=1 
C436: x12+x20-y12_20 <=1 
C437: x12+x21-y12_21 <=1 
C438: x12+x22-y12_22 <=1 
C439: x12+x28-y12_28 <=1 
C440: x12+x30 <=1 
C441: x12+x31-y12_31 <=1 
C442: x12+x33-y12_33 <=1 
C443: x12+x37 <=1 
C444: x12+x39 <=1 
C445: x12+x40-y12_40 <=1 
C446: x12+x41 <=1 
C447: x12+x43-y12_43 <=1 
C448: x12+x44-y12_44 <=1 
C449: x12+x45 <=1 
C450: x12+x47-y12_47 <=1 
C451: x12+x48-y12_48 <=1 
C452: x12+x49 <=1 
C453: x12+x51-y12_51 <=1 
C454: x12+x53-y12_53 <=1 
C455: x12+x54 <=1 
C456: x12+x55-y12_55 <=1 
C457: x12+x56 <=1 
C458: x12+x59 <=1 
C459: x12+x60-y12_60 <=1 
C460: x12+x62-y12_62 <=1 
C461: x12+x64-y12_64 <=1 
C462: x12+x65 <=1 
C463: x12+x66 <=1 
C464: x13+x15 <=1 
C465: x13+x16 <=1 
C466: x13+x17-y13_17 <=1 
C467: x13+x18 <=1 
C468: x13+x21-y13_21 <=1 
C469: x13+x25-y13_25 <=1 
C470: x13+x26 <=1 
C471: x13+x27 <=1 
C472: x13+x28 <=1 
C473: x13+x31 <=1 
C474: x13+x33 <=1 
C475: x13+x34 <=1 
C476: x13+x35 <=1 
C477: x13+x36 <=1 
C478: x13+x37 <=1 
C479: x13+x38 <=1 
C480: x13+x40-y13_40 <=1 
C481: x13+x41 <=1 
C482: x13+x42-y13_42 <=1 
C483: x13+x43-y13_43 <=1 
C484: x13+x45-y13_45 <=1 
C485: x13+x46 <=1 
C486: x13+x47 <=1 
C487: x13+x49 <=1 
C488: x13+x51 <=1 
C489: x13+x53 <=1 
C490: x13+x54-y13_54 <=1 
C491: x13+x58-y13_58 <=1 
C492: x13+x61 <=1 
C493: x13+x62 <=1 
C494: x13+x63 <=1 
C495: x13+x64 <=1 
C496: x13+x65 <=1 
C497: x13+x66-y13_66 <=1 
C498: x14+x16 <=1 
C499: x14+x18-y14_18 <=1 
C500: x14+x19-y14_19 <=1 
C501: x14+x20 <=1 
C502: x14+x21-y14_21 <=1 
C503: x14+x23-y14_23 <=1 
C504: x14+x24-y14_24 <=1 
C505: x14+x26 <=1 
C506: x14+x28 <=1 
C507: x14+x30 <=1 
C508: x14+x32 <=1 
C509: x14+x33-y14_33 <=1 
C510: x14+x35-y14_35 <=1 
C511: x14+x36-y14_36 <=1 
C512: x14+x37-y14_37 <=1 
C513: x14+x40-y14_40 <=1 
C514: x14+x41 <=1 
C515: x14+x42 <=1 
C516: x14+x44 <=1 
C517: x14+x45-y14_45 <=1 
C518: x14+x46-y14_46 <=1 
C519: x14+x48 <=1 
C520: x14+x50-y14_50 <=1 
C521: x14+x51-y14_51 <=1 
C522: x14+x52 <=1 
C523: x14+x53 <=1 
C524: x14+x54-y14_54 <=1 
C525: x14+x56 <=1 
C526: x14+x59-y14_59 <=1 
C527: x14+x61-y14_61 <=1 
C528: x14+x65-y14_65 <=1 
C529: x14+x66 <=1 
C530: x15+x18-y15_18 <=1 
C531: x15+x19 <=1 
C532: x15+x21-y15_21 <=1 
C533: x15+x22 <=1 
C534: x15+x28-y15_28 <=1 
C535: x15+x29 <=1 
C536: x15+x31 <=1 
C537: x15+x32-y15_32 <=1 
C538: x15+x33 <=1 
C539: x15+x34 <=1 
C540: x15+x37 <=1 
C541: x15+x38-y15_38 <=1 
C542: x15+x41-y15_41 <=1 
C543: x15+x42 <=1 
C544: x15+x43 <=1 
C545: x15+x44 <=1 
C546: x15+x45-y15_45 <=1 
C547: x15+x46 <=1 
C548: x15+x48-y15_48 <=1 
C549: x15+x53 <=1 
C550: x15+x54 <=1 
C551: x15+x55 <=1 
C552: x15+x58-y15_58 <=1 
C553: x15+x59 <=1 
C554: x15+x60-y15_60 <=1 
C555: x15+x61 <=1 
C556: x15+x64-y15_64 <=1 
C557: x15+x66-y15_66 <=1 
C558: x16+x17-y16_17 <=1 
C559: x16+x18 <=1 
C560: x16+x20-y16_20 <=1 
C561: x16+x25-y16_25 <=1 
C562: x16+x26-y16_26 <=1 
C563: x16+x27-y16_27 <=1 
C564: x16+x28-y16_28 <=1 
C565: x16+x30 <=1 
C566: x16+x31-y16_31 <=1 
C567: x16+x34-y16_34 <=1 
C568: x16+x35 <=1 
C569: x16+x37 <=1 
C570: x16+x39-y16_39 <=1 
C571: x16+x40-y16_40 <=1 
C572: x16+x41 <=1 
C573: x16+x42-y16_42 <=1 
C574: x16+x43 <=1 
C575: x16+x44 <=1 
C576: x16+x47 <=1 
C577: x16+x50 <=1 
C578: x16+x51-y16_51 <=1 
C579: x16+x55 <=1 
C580: x16+x59 <=1 
C581: x16+x60-y16_60 <=1 
C582: x16+x61-y16_61 <=1 
C583: x16+x63 <=1 
C584: x16+x64 <=1 
C585: x16+x65-y16_65 <=1 
C586: x16+x66 <=1 
C587: x17+x18-y17_18 <=1 
C588: x17+x20 <=1 
C589: x17+x21-y17_21 <=1 
C590: x17+x22 <=1 
C591: x17+x23 <=1 
C592: x17+x24 <=1 
C593: x17+x25 <=1 
C594: x17+x27-y17_27 <=1 
C595: x17+x29 <=1 
C596: x17+x31 <=1 
C597: x17+x36 <=1 
C598: x17+x37 <=1 
C599: x17+x38 <=1 
C600: x17+x39 <=1 
C601: x17+x41 <=1 
C602: x17+x42 <=1 
C603: x17+x43 <=1 
C604: x17+x47 <=1 
C605: x17+x49-y17_49 <=1 
C606: x17+x50-y17_50 <=1 
C607: x17+x53 <=1 
C608: x17+x57 <=1 
C609: x17+x58-y17_58 <=1 
C610: x17+x59-y17_59 <=1 
C611: x17+x60 <=1 
C612: x17+x61-y17_61 <=1 
C613: x17+x63-y17_63 <=1 
C614: x18+x19 <=1 
C615: x18+x20 <=1 
C616: x18+x21-y18_21 <=1 
C617: x18+x23 <=1 
C618: x18+x24 <=1 
C619: x18+x27-y18_27 <=1 
C620: x18+x28 <=1 
C621: x18+x30-y18_30 <=1 
C622: x18+x31-y18_31 <=1 
C623: x18+x39 <=1 
C624: x18+x40-y18_40 <=1 
C625: x18+x41 <=1 
C626: x18+x44 <=1 
C627: x18+x46 <=1 
C628: x18+x47-y18_47 <=1 
C629: x18+x48 <=1 
C630: x18+x49 <=1 
C631: x18+x50-y18_50 <=1 
C632: x18+x52 <=1 
C633: x18+x53 <=1 
C634: x18+x54-y18_54 <=1 
C635: x18+x55-y18_55 <=1 
C636: x18+x56-y18_56 <=1 
C637: x18+x58-y18_58 <=1 
C638: x18+x60-y18_60 <=1 
C639: x18+x62 <=1 
C640: x18+x63-y18_63 <=1 
C641: x18+x65-y18_65 <=1 
C642: x18+x66 <=1 
C643: x19+x20-y19_20 <=1 
C644: x19+x21-y19_21 <=1 
C645: x19+x22-y19_22 <=1 
C646: x19+x25 <=1 
C647: x19+x27-y19_27 <=1 
C648: x19+x29-y19_29 <=1 
C649: x19+x30 <=1 
C650: x19+x32 <=1 
C651: x19+x33-y19_33 <=1 
C652: x19+x34-y19_34 <=1 
C653: x19+x37-y19_37 <=1 
C654: x19+x38-y19_38 <=1 
C655: x19+x39 <=1 
C656: x19+x40-y19_40 <=1 
C657: x19+x41 <=1 
C658: x19+x42 <=1 
C659: x19+x43-y19_43 <=1 
C660: x19+x45 <=1 
C661: x19+x48 <=1 
C662: x19+x49-y19_49 <=1 
C663: x19+x50 <=1 
C664: x19+x52 <=1 
C665: x19+x53 <=1 
C666: x19+x54 <=1 
C667: x19+x58-y19_58 <=1 
C668: x19+x59-y19_59 <=1 
C669: x19+x60-y19_60 <=1 
C670: x19+x63 <=1 
C671: x19+x64 <=1 
C672: x19+x66 <=1 
C673: x20+x23-y20_23 <=1 
C674: x20+x24-y20_24 <=1 
C675: x20+x27-y20_27 <=1 
C676: x20+x30 <=1 
C677: x20+x32 <=1 
C678: x20+x33 <=1 
C679: x20+x35 <=1 
C680: x20+x36 <=1 
C681: x20+x37-y20_37 <=1 
C682: x20+x38-y20_38 <=1 
C683: x20+x41-y20_41 <=1 
C684: x20+x42-y20_42 <=1 
C685: x20+x43 <=1 
C686: x20+x44 <=1 
C687: x20+x46-y20_46 <=1 
C688: x20+x48-y20_48 <=1 
C689: x20+x49 <=1 
C690: x20+x50 <=1 
C691: x20+x51 <=1 
C692: x20+x54 <=1 
C693: x20+x56-y20_56 <=1 
C694: x20+x57 <=1 
C695: x20+x58 <=1 
C696: x20+x60-y20_60 <=1 
C697: x20+x61-y20_61 <=1 
C698: x20+x64-y20_64 <=1 
C699: x20+x65 <=1 
C700: x20+x66 <=1 
C701: x21+x22 <=1 
C702: x21+x24-y21_24 <=1 
C703: x21+x27-y21_27 <=1 
C704: x21+x28-y21_28 <=1 
C705: x21+x29-y21_29 <=1 
C706: x21+x30-y21_30 <=1 
C707: x21+x31 <=1 
C708: x21+x33 <=1 
C709: x21+x34 <=1 
C710: x21+x35-y21_35 <=1 
C711: x21+x36-y21_36 <=1 
C712: x21+x38 <=1 
C713: x21+x39-y21_39 <=1 
C714: x21+x40 <=1 
C715: x21+x45 <=1 
C716: x21+x47-y21_47 <=1 
C717: x21+x48 <=1 
C718: x21+x49 <=1 
C719: x21+x50 <=1 
C720: x21+x52 <=1 
C721: x21+x53-y21_53 <=1 
C722: x21+x54 <=1 
C723: x21+x56 <=1 
C724: x21+x58-y21_58 <=1 
C725: x21+x60 <=1 
C726: x21+x63 <=1 
C727: x21+x65-y21_65 <=1 
C728: x21+x66-y21_66 <=1 
C729: x22+x26 <=1 
C730: x22+x27 <=1 
C731: x22+x28 <=1 
C732: x22+x29-y22_29 <=1 
C733: x22+x31 <=1 
C734: x22+x32-y22_32 <=1 
C735: x22+x34 <=1 
C736: x22+x35-y22_35 <=1 
C737: x22+x36 <=1 
C738: x22+x37-y22_37 <=1 
C739: x22+x38-y22_38 <=1 
C740: x22+x41 <=1 
C741: x22+x43-y22_43 <=1 
C742: x22+x44-y22_44 <=1 
C743: x22+x45 <=1 
C744: x22+x47-y22_47 <=1 
C745: x22+x50 <=1 
C746: x22+x52-y22_52 <=1 
C747: x22+x54 <=1 
C748: x22+x55-y22_55 <=1 
C749: x22+x56-y22_56 <=1 
C750: x22+x57-y22_57 <=1 
C751: x22+x58 <=1 
C752: x22+x59-y22_59 <=1 
C753: x22+x60 <=1 
C754: x22+x61 <=1 
C755: x22+x62 <=1 
C756: x22+x66 <=1 
C757: x23+x24 <=1 
C758: x23+x26-y23_26 <=1 
C759: x23+x28 <=1 
C760: x23+x29 <=1 
C761: x23+x31 <=1 
C762: x23+x32 <=1 
C763: x23+x36-y23_36 <=1 
C764: x23+x37-y23_37 <=1 
C765: x23+x38 <=1 
C766: x23+x40 <=1 
C767: x23+x41-y23_41 <=1 
C768: x23+x42 <=1 
C769: x23+x43 <=1 
C770: x23+x45-y23_45 <=1 
C771: x23+x46 <=1 
C772: x23+x47 <=1 
C773: x23+x48 <=1 
C774: x23+x49-y23_49 <=1 
C775: x23+x50-y23_50 <=1 
C776: x23+x55 <=1 
C777: x23+x58 <=1 
C778: x23+x60-y23_60 <=1 
C779: x23+x61-y23_61 <=1 
C780: x23+x64-y23_64 <=1 
C781: x23+x65 <=1 
C782: x24+x25 <=1 
C783: x24+x27 <=1 
C784: x24+x28-y24_28 <=1 
C785: x24+x29-y24_29 <=1 
C786: x24+x31-y24_31 <=1 
C787: x24+x34 <=1 
C788: x24+x38 <=1 
C789: x24+x39 <=1 
C790: x24+x41 <=1 
C791: x24+x42 <=1 
C792: x24+x43 <=1 
C793: x24+x44-y24_44 <=1 
C794: x24+x45 <=1 
C795: x24+x50 <=1 
C796: x24+x52 <=1 
C797: x24+x53-y24_53 <=1 
C798: x24+x57-y24_57 <=1 
C799: x24+x59 <=1 
C800: x24+x60 <=1 
C801: x24+x61-y24_61 <=1 
C802: x24+x62-y24_62 <=1 
C803: x24+x63 <=1 
C804: x24+x66-y24_66 <=1 
C805: x25+x26-y25_26 <=1 
C806: x25+x27-y25_27 <=1 
C807: x25+x28-y25_28 <=1 
C808: x25+x30-y25_30 <=1 
C809: x25+x32 <=1 
C810: x25+x34 <=1 
C811: x25+x35 <=1 
C812: x25+x36 <=1 
C813: x25+x37 <=1 
C814: x25+x38 <=1 
C815: x25+x39-y25_39 <=1 
C816: x25+x41 <=1 
C817: x25+x44-y25_44 <=1 
C818: x25+x45-y25_45 <=1 
C819: x25+x46 <=1 
C820: x25+x47 <=1 
C821: x25+x49 <=1 
C822: x25+x50-y25_50 <=1 
C823: x25+x51-y25_51 <=1 
C824: x25+x52-y25_52 <=1 
C825: x25+x53 <=1 
C826: x25+x55-y25_55 <=1 
C827: x25+x56 <=1 
C828: x25+x57 <=1 
C829: x25+x58 <=1 
C830: x25+x61-y25_61 <=1 
C831: x25+x62 <=1 
C832: x25+x64 <=1 
C833: x25+x65-y25_65 <=1 
C834: x25+x66 <=1 
C835: x26+x27-y26_27 <=1 
C836: x26+x29 <=1 
C837: x26+x30 <=1 
C838: x26+x32 <=1 
C839: x26+x33-y26_33 <=1 
C840: x26+x34 <=1 
C841: x26+x38-y26_38 <=1 
C842: x26+x39-y26_39 <=1 
C843: x26+x40 <=1 
C844: x26+x41-y26_41 <=1 
C845: x26+x42-y26_42 <=1 
C846: x26+x43-y26_43 <=1 
C847: x26+x45 <=1 
C848: x26+x47 <=1 
C849: x26+x48-y26_48 <=1 
C850: x26+x49-y26_49 <=1 
C851: x26+x50 <=1 
C852: x26+x51 <=1 
C853: x26+x52-y26_52 <=1 
C854: x26+x54 <=1 
C855: x26+x55-y26_55 <=1 
C856: x26+x56 <=1 
C857: x26+x57 <=1 
C858: x26+x58 <=1 
C859: x26+x59-y26_59 <=1 
C860: x26+x60-y26_60 <=1 
C861: x26+x61 <=1 
C862: x26+x62 <=1 
C863: x26+x64 <=1 
C864: x27+x29 <=1 
C865: x27+x36-y27_36 <=1 
C866: x27+x37-y27_37 <=1 
C867: x27+x41 <=1 
C868: x27+x44-y27_44 <=1 
C869: x27+x45-y27_45 <=1 
C870: x27+x47-y27_47 <=1 
C871: x27+x48-y27_48 <=1 
C872: x27+x49-y27_49 <=1 
C873: x27+x50 <=1 
C874: x27+x52-y27_52 <=1 
C875: x27+x53 <=1 
C876: x27+x55 <=1 
C877: x27+x56 <=1 
C878: x27+x57-y27_57 <=1 
C879: x27+x58-y27_58 <=1 
C880: x27+x59-y27_59 <=1 
C881: x27+x60-y27_60 <=1 
C882: x27+x61-y27_61 <=1 
C883: x27+x62-y27_62 <=1 
C884: x27+x63-y27_63 <=1 
C885: x27+x64-y27_64 <=1 
C886: x27+x65 <=1 
C887: x27+x66-y27_66 <=1 
C888: x28+x30-y28_30 <=1 
C889: x28+x31-y28_31 <=1 
C890: x28+x33-y28_33 <=1 
C891: x28+x34 <=1 
C892: x28+x35-y28_35 <=1 
C893: x28+x36-y28_36 <=1 
C894: x28+x37-y28_37 <=1 
C895: x28+x38 <=1 
C896: x28+x40 <=1 
C897: x28+x42 <=1 
C898: x28+x43 <=1 
C899: x28+x44 <=1 
C900: x28+x45-y28_45 <=1 
C901: x28+x47 <=1 
C902: x28+x53-y28_53 <=1 
C903: x28+x55 <=1 
C904: x28+x58 <=1 
C905: x28+x61 <=1 
C906: x28+x62 <=1 
C907: x28+x63 <=1 
C908: x28+x66-y28_66 <=1 
C909: x29+x30-y29_30 <=1 
C910: x29+x32-y29_32 <=1 
C911: x29+x33 <=1 
C912: x29+x37 <=1 
C913: x29+x38 <=1 
C914: x29+x39-y29_39 <=1 
C915: x29+x40 <=1 
C916: x29+x42-y29_42 <=1 
C917: x29+x43 <=1 
C918: x29+x44 <=1 
C919: x29+x46-y29_46 <=1 
C920: x29+x47-y29_47 <=1 
C921: x29+x49-y29_49 <=1 
C922: x29+x50 <=1 
C923: x29+x52-y29_52 <=1 
C924: x29+x56-y29_56 <=1 
C925: x29+x57-y29_57 <=1 
C926: x29+x59-y29_59 <=1 
C927: x29+x61-y29_61 <=1 
C928: x29+x64 <=1 
C929: x29+x65 <=1 
C930: x30+x31 <=1 
C931: x30+x32-y30_32 <=1 
C932: x30+x34-y30_34 <=1 
C933: x30+x35 <=1 
C934: x30+x37-y30_37 <=1 
C935: x30+x39-y30_39 <=1 
C936: x30+x40 <=1 
C937: x30+x42-y30_42 <=1 
C938: x30+x46-y30_46 <=1 
C939: x30+x51-y30_51 <=1 
C940: x30+x52-y30_52 <=1 
C941: x30+x53 <=1 
C942: x30+x54-y30_54 <=1 
C943: x30+x58 <=1 
C944: x30+x60-y30_60 <=1 
C945: x30+x64-y30_64 <=1 
C946: x30+x65 <=1 
C947: x30+x66 <=1 
C948: x31+x32-y31_32 <=1 
C949: x31+x35-y31_35 <=1 
C950: x31+x37-y31_37 <=1 
C951: x31+x39-y31_39 <=1 
C952: x31+x40-y31_40 <=1 
C953: x31+x41 <=1 
C954: x31+x42-y31_42 <=1 
C955: x31+x44 <=1 
C956: x31+x45 <=1 
C957: x31+x48-y31_48 <=1 
C958: x31+x49 <=1 
C959: x31+x50 <=1 
C960: x31+x51-y31_51 <=1 
C961: x31+x52 <=1 
C962: x31+x54-y31_54 <=1 
C963: x31+x56 <=1 
C964: x31+x58 <=1 
C965: x31+x59 <=1 
C966: x31+x63-y31_63 <=1 
C967: x31+x65 <=1 
C968: x32+x36-y32_36 <=1 
C969: x32+x37 <=1 
C970: x32+x38-y32_38 <=1 
C971: x32+x40 <=1 
C972: x32+x42 <=1 
C973: x32+x43-y32_43 <=1 
C974: x32+x46-y32_46 <=1 
C975: x32+x47 <=1 
C976: x32+x50-y32_50 <=1 
C977: x32+x51 <=1 
C978: x32+x52 <=1 
C979: x32+x53 <=1 
C980: x32+x54-y32_54 <=1 
C981: x32+x55-y32_55 <=1 
C982: x32+x57 <=1 
C983: x32+x58-y32_58 <=1 
C984: x32+x59 <=1 
C985: x32+x61 <=1 
C986: x32+x63-y32_63 <=1 
C987: x32+x64 <=1 
C988: x32+x65-y32_65 <=1 
C989: x32+x66-y32_66 <=1 
C990: x33+x36 <=1 
C991: x33+x37-y33_37 <=1 
C992: x33+x38 <=1 
C993: x33+x39 <=1 
C994: x33+x41 <=1 
C995: x33+x42-y33_42 <=1 
C996: x33+x43-y33_43 <=1 
C997: x33+x45-y33_45 <=1 
C998: x33+x46-y33_46 <=1 
C999: x33+x47-y33_47 <=1 
C1000: x33+x48-y33_48 <=1 
C1001: x33+x50 <=1 
C1002: x33+x51 <=1 
C1003: x33+x53 <=1 
C1004: x33+x54-y33_54 <=1 
C1005: x33+x55 <=1 
C1006: x33+x56 <=1 
C1007: x33+x58-y33_58 <=1 
C1008: x33+x59-y33_59 <=1 
C1009: x33+x63 <=1 
C1010: x33+x65-y33_65 <=1 
C1011: x33+x66-y33_66 <=1 
C1012: x34+x36-y34_36 <=1 
C1013: x34+x37-y34_37 <=1 
C1014: x34+x38 <=1 
C1015: x34+x39 <=1 
C1016: x34+x42-y34_42 <=1 
C1017: x34+x43 <=1 
C1018: x34+x45 <=1 
C1019: x34+x46 <=1 
C1020: x34+x47-y34_47 <=1 
C1021: x34+x48-y34_48 <=1 
C1022: x34+x51 <=1 
C1023: x34+x54 <=1 
C1024: x34+x55 <=1 
C1025: x34+x57-y34_57 <=1 
C1026: x34+x58-y34_58 <=1 
C1027: x34+x59 <=1 
C1028: x34+x61 <=1 
C1029: x34+x62-y34_62 <=1 
C1030: x34+x64 <=1 
C1031: x34+x65 <=1 
C1032: x35+x38-y35_38 <=1 
C1033: x35+x39-y35_39 <=1 
C1034: x35+x40 <=1 
C1035: x35+x42 <=1 
C1036: x35+x43 <=1 
C1037: x35+x48 <=1 
C1038: x35+x49-y35_49 <=1 
C1039: x35+x54-y35_54 <=1 
C1040: x35+x55-y35_55 <=1 
C1041: x35+x56 <=1 
C1042: x35+x57 <=1 
C1043: x35+x59 <=1 
C1044: x35+x60 <=1 
C1045: x35+x61 <=1 
C1046: x35+x63 <=1 
C1047: x35+x66-y35_66 <=1 
C1048: x36+x38-y36_38 <=1 
C1049: x36+x40-y36_40 <=1 
C1050: x36+x41-y36_41 <=1 
C1051: x36+x45 <=1 
C1052: x36+x47 <=1 
C1053: x36+x50 <=1 
C1054: x36+x52 <=1 
C1055: x36+x55 <=1 
C1056: x36+x56-y36_56 <=1 
C1057: x36+x57-y36_57 <=1 
C1058: x36+x58-y36_58 <=1 
C1059: x36+x60 <=1 
C1060: x36+x62 <=1 
C1061: x36+x64-y36_64 <=1 
C1062: x36+x65 <=1 
C1063: x37+x38-y37_38 <=1 
C1064: x37+x39 <=1 
C1065: x37+x41 <=1 
C1066: x37+x42 <=1 
C1067: x37+x43 <=1 
C1068: x37+x44-y37_44 <=1 
C1069: x37+x45-y37_45 <=1 
C1070: x37+x47-y37_47 <=1 
C1071: x37+x48 <=1 
C1072: x37+x49 <=1 
C1073: x37+x53 <=1 
C1074: x37+x56 <=1 
C1075: x37+x58-y37_58 <=1 
C1076: x37+x60-y37_60 <=1 
C1077: x37+x63-y37_63 <=1 
C1078: x37+x65 <=1 
C1079: x37+x66-y37_66 <=1 
C1080: x38+x39-y38_39 <=1 
C1081: x38+x40 <=1 
C1082: x38+x41-y38_41 <=1 
C1083: x38+x42 <=1 
C1084: x38+x43 <=1 
C1085: x38+x44-y38_44 <=1 
C1086: x38+x45 <=1 
C1087: x38+x46-y38_46 <=1 
C1088: x38+x47-y38_47 <=1 
C1089: x38+x53 <=1 
C1090: x38+x57-y38_57 <=1 
C1091: x38+x60 <=1 
C1092: x38+x63 <=1 
C1093: x38+x66 <=1 
C1094: x39+x40 <=1 
C1095: x39+x41-y39_41 <=1 
C1096: x39+x43-y39_43 <=1 
C1097: x39+x44 <=1 
C1098: x39+x46-y39_46 <=1 
C1099: x39+x47 <=1 
C1100: x39+x48 <=1 
C1101: x39+x49 <=1 
C1102: x39+x51-y39_51 <=1 
C1103: x39+x52-y39_52 <=1 
C1104: x39+x53 <=1 
C1105: x39+x56-y39_56 <=1 
C1106: x39+x57-y39_57 <=1 
C1107: x39+x59 <=1 
C1108: x39+x61 <=1 
C1109: x39+x62 <=1 
C1110: x39+x63-y39_63 <=1 
C1111: x39+x65-y39_65 <=1 
C1112: x39+x66-y39_66 <=1 
C1113: x40+x41 <=1 
C1114: x40+x44 <=1 
C1115: x40+x45-y40_45 <=1 
C1116: x40+x46-y40_46 <=1 
C1117: x40+x48-y40_48 <=1 
C1118: x40+x49 <=1 
C1119: x40+x52-y40_52 <=1 
C1120: x40+x53-y40_53 <=1 
C1121: x40+x55-y40_55 <=1 
C1122: x40+x56 <=1 
C1123: x40+x57 <=1 
C1124: x40+x58-y40_58 <=1 
C1125: x40+x60 <=1 
C1126: x40+x62-y40_62 <=1 
C1127: x40+x65-y40_65 <=1 
C1128: x40+x66 <=1 
C1129: x41+x42-y41_42 <=1 
C1130: x41+x43-y41_43 <=1 
C1131: x41+x44-y41_44 <=1 
C1132: x41+x53 <=1 
C1133: x41+x55 <=1 
C1134: x41+x63-y41_63 <=1 
C1135: x41+x64-y41_64 <=1 
C1136: x41+x65 <=1 
C1137: x42+x45-y42_45 <=1 
C1138: x42+x46-y42_46 <=1 
C1139: x42+x48-y42_48 <=1 
C1140: x42+x49-y42_49 <=1 
C1141: x42+x51 <=1 
C1142: x42+x53-y42_53 <=1 
C1143: x42+x54 <=1 
C1144: x42+x56-y42_56 <=1 
C1145: x42+x57 <=1 
C1146: x42+x60 <=1 
C1147: x42+x61 <=1 
C1148: x42+x63-y42_63 <=1 
C1149: x42+x64-y42_64 <=1 
C1150: x42+x66-y42_66 <=1 
C1151: x43+x44 <=1 
C1152: x43+x45 <=1 
C1153: x43+x46 <=1 
C1154: x43+x47-y43_47 <=1 
C1155: x43+x50 <=1 
C1156: x43+x51-y43_51 <=1 
C1157: x43+x52-y43_52 <=1 
C1158: x43+x54 <=1 
C1159: x43+x55 <=1 
C1160: x43+x56 <=1 
C1161: x43+x58-y43_58 <=1 
C1162: x43+x59 <=1 
C1163: x43+x60-y43_60 <=1 
C1164: x43+x62-y43_62 <=1 
C1165: x43+x64-y43_64 <=1 
C1166: x43+x66 <=1 
C1167: x44+x45 <=1 
C1168: x44+x46 <=1 
C1169: x44+x47-y44_47 <=1 
C1170: x44+x48-y44_48 <=1 
C1171: x44+x49-y44_49 <=1 
C1172: x44+x50-y44_50 <=1 
C1173: x44+x52-y44_52 <=1 
C1174: x44+x53-y44_53 <=1 
C1175: x44+x54 <=1 
C1176: x44+x55-y44_55 <=1 
C1177: x44+x57-y44_57 <=1 
C1178: x44+x58-y44_58 <=1 
C1179: x44+x61-y44_61 <=1 
C1180: x44+x62 <=1 
C1181: x44+x64-y44_64 <=1 
C1182: x45+x48 <=1 
C1183: x45+x50-y45_50 <=1 
C1184: x45+x51-y45_51 <=1 
C1185: x45+x52 <=1 
C1186: x45+x53 <=1 
C1187: x45+x54-y45_54 <=1 
C1188: x45+x56 <=1 
C1189: x45+x57 <=1 
C1190: x45+x58 <=1 
C1191: x45+x60 <=1 
C1192: x45+x63 <=1 
C1193: x45+x64 <=1 
C1194: x46+x47 <=1 
C1195: x46+x49 <=1 
C1196: x46+x50 <=1 
C1197: x46+x51-y46_51 <=1 
C1198: x46+x52-y46_52 <=1 
C1199: x46+x54-y46_54 <=1 
C1200: x46+x55-y46_55 <=1 
C1201: x46+x57 <=1 
C1202: x46+x58-y46_58 <=1 
C1203: x46+x61-y46_61 <=1 
C1204: x46+x62 <=1 
C1205: x46+x64-y46_64 <=1 
C1206: x46+x65 <=1 
C1207: x46+x66-y46_66 <=1 
C1208: x47+x48-y47_48 <=1 
C1209: x47+x49-y47_49 <=1 
C1210: x47+x50 <=1 
C1211: x47+x51 <=1 
C1212: x47+x56 <=1 
C1213: x47+x57 <=1 
C1214: x47+x58 <=1 
C1215: x47+x62 <=1 
C1216: x47+x63-y47_63 <=1 
C1217: x47+x65 <=1 
C1218: x47+x66 <=1 
C1219: x48+x51 <=1 
C1220: x48+x52-y48_52 <=1 
C1221: x48+x56 <=1 
C1222: x48+x57 <=1 
C1223: x48+x58-y48_58 <=1 
C1224: x48+x60-y48_60 <=1 
C1225: x48+x61 <=1 
C1226: x48+x63-y48_63 <=1 
C1227: x48+x64 <=1 
C1228: x48+x66 <=1 
C1229: x49+x50-y49_50 <=1 
C1230: x49+x52-y49_52 <=1 
C1231: x49+x54 <=1 
C1232: x49+x55 <=1 
C1233: x49+x57 <=1 
C1234: x49+x58-y49_58 <=1 
C1235: x49+x60 <=1 
C1236: x49+x61 <=1 
C1237: x49+x62 <=1 
C1238: x49+x65 <=1 
C1239: x50+x51-y50_51 <=1 
C1240: x50+x52-y50_52 <=1 
C1241: x50+x55-y50_55 <=1 
C1242: x50+x57 <=1 
C1243: x50+x58 <=1 
C1244: x50+x62-y50_62 <=1 
C1245: x51+x54-y51_54 <=1 
C1246: x51+x60-y51_60 <=1 
C1247: x51+x61-y51_61 <=1 
C1248: x51+x63 <=1 
C1249: x51+x64-y51_64 <=1 
C1250: x51+x65 <=1 
C1251: x52+x55-y52_55 <=1 
C1252: x52+x56 <=1 
C1253: x52+x58-y52_58 <=1 
C1254: x52+x59 <=1 
C1255: x52+x63-y52_63 <=1 
C1256: x52+x64-y52_64 <=1 
C1257: x52+x65-y52_65 <=1 
C1258: x53+x54 <=1 
C1259: x53+x59 <=1 
C1260: x53+x60-y53_60 <=1 
C1261: x53+x61 <=1 
C1262: x53+x64-y53_64 <=1 
C1263: x54+x55-y54_55 <=1 
C1264: x54+x56-y54_56 <=1 
C1265: x54+x57 <=1 
C1266: x54+x58-y54_58 <=1 
C1267: x54+x59 <=1 
C1268: x54+x60-y54_60 <=1 
C1269: x54+x62-y54_62 <=1 
C1270: x54+x63 <=1 
C1271: x54+x66-y54_66 <=1 
C1272: x55+x56 <=1 
C1273: x55+x57-y55_57 <=1 
C1274: x55+x58 <=1 
C1275: x55+x60-y55_60 <=1 
C1276: x55+x61-y55_61 <=1 
C1277: x55+x65 <=1 
C1278: x55+x66 <=1 
C1279: x56+x59 <=1 
C1280: x56+x61 <=1 
C1281: x56+x62 <=1 
C1282: x56+x63-y56_63 <=1 
C1283: x56+x64-y56_64 <=1 
C1284: x57+x58-y57_58 <=1 
C1285: x57+x59 <=1 
C1286: x57+x61 <=1 
C1287: x57+x64-y57_64 <=1 
C1288: x57+x65-y57_65 <=1 
C1289: x57+x66-y57_66 <=1 
C1290: x58+x59-y58_59 <=1 
C1291: x58+x60-y58_60 <=1 
C1292: x58+x61 <=1 
C1293: x58+x64 <=1 
C1294: x58+x65 <=1 
C1295: x59+x60-y59_60 <=1 
C1296: x59+x61 <=1 
C1297: x59+x62 <=1 
C1298: x59+x64-y59_64 <=1 
C1299: x59+x65 <=1 
C1300: x59+x66 <=1 
C1301: x60+x61 <=1 
C1302: x60+x62 <=1 
C1303: x60+x63 <=1 
C1304: x61+x62-y61_62 <=1 
C1305: x61+x63 <=1 
C1306: x61+x64 <=1 
C1307: x61+x65 <=1 
C1308: x61+x66-y61_66 <=1 
C1309: x62+x63 <=1 
C1310: x62+x65 <=1 
C1311: x64+x66-y64_66 <=1 

binary
x0
x1
x2
x3
x4
x5
x6
x7
x8
x9
x10
x11
x12
x13
x14
x15
x16
x17
x18
x19
x20
x21
x22
x23
x24
x25
x26
x27
x28
x29
x30
x31
x32
x33
x34
x35
x36
x37
x38
x39
x40
x41
x42
x43
x44
x45
x46
x47
x48
x49
x50
x51
x52
x53
x54
x55
x56
x57
x58
x59
x60
x61
x62
x63
x64
x65
x66
